% File represents an instance of a Composite Structure problem to be solved by a CP framework
% Created on 2025-03-26 10:41:46.137
T = 50;
n = 36;
m = 60;
edges = [(1, 2),
(7, 8),
(13, 14),
(20, 19),
(26, 25),
(31, 32),
(2, 3),
(8, 9),
(14, 15),
(20, 21),
(26, 27),
(32, 33),
(3, 4),
(9, 10),
(15, 16),
(21, 22),
(27, 28),
(33, 34),
(4, 5),
(10, 11),
(16, 17),
(22, 23),
(28, 29),
(35, 34),
(5, 6),
(11, 12),
(17, 18),
(23, 24),
(29, 30),
(35, 36),
(7, 1),
(13, 7),
(13, 19),
(25, 19),
(31, 25),
(8, 2),
(14, 8),
(20, 14),
(26, 20),
(26, 32),
(9, 3),
(15, 9),
(21, 15),
(27, 21),
(27, 33),
(10, 4),
(16, 10),
(22, 16),
(28, 22),
(28, 34),
(11, 5),
(17, 11),
(23, 17),
(29, 23),
(35, 29),
(12, 6),
(18, 12),
(24, 18),
(30, 24),
(36, 30)];
counts = [|12, 6, 12, 6,
|10, 6, 10, 4,
|8, 6, 8, 4,
|8, 4, 8, 2,
|6, 2, 6, 2,
|4, 2, 4, 2,
|14, 6, 14, 8,
|12, 6, 12, 6,
|10, 6, 10, 4,
|8, 6, 8, 2,
|8, 2, 8, 2,
|6, 2, 6, 2,
|14, 10, 14, 8,
|14, 6, 14, 6,
|12, 6, 12, 6,
|10, 6, 10, 4,
|10, 2, 10, 2,
|8, 2, 8, 2,
|14, 10, 14, 4,
|14, 10, 14, 6,
|14, 8, 14, 6,
|12, 8, 12, 4,
|12, 2, 12, 4,
|10, 2, 10, 4,
|14, 10, 14, 6,
|16, 10, 16, 6,
|14, 10, 14, 6,
|14, 8, 14, 6,
|14, 2, 14, 6,
|12, 2, 12, 6,
|16, 12, 16, 6,
|16, 8, 16, 6,
|14, 6, 14, 6,
|14, 4, 14, 6,
|16, 4, 16, 6,
|14, 4, 14, 6|];
